NAME          
ROWS
 N  OBJ
 L  c1
 L  c2
COLUMNS
    MARKER    'MARKER'                 'INTORG'
    x[1]      c1        980
    x[1]      c2        349
    x[1]      OBJ       -150
    x[2]      c1        567
    x[2]      c2        659
    x[2]      OBJ       -335
    x[3]      c1        213
    x[3]      c2        131
    x[3]      OBJ       -16
    x[4]      c1        979
    x[4]      c2        818
    x[4]      OBJ       -450
    x[5]      c1        970
    x[5]      c2        801
    x[5]      OBJ       -362
    x[6]      c1        746
    x[6]      c2        679
    x[6]      OBJ       -566
    x[7]      c1        899
    x[7]      c2        231
    x[7]      OBJ       -26
    x[8]      c1        412
    x[8]      c2        117
    x[8]      OBJ       -38
    x[9]      c1        640
    x[9]      c2        424
    x[9]      OBJ       -51
    x[10]     c1        764
    x[10]     c2        504
    x[10]     OBJ       -707
    x[11]     c1        235
    x[11]     c2        84
    x[11]     OBJ       -116
    x[12]     c1        99
    x[12]     c2        401
    x[12]     OBJ       -768
    x[13]     c1        81
    x[13]     c2        710
    x[13]     OBJ       -285
    x[14]     c1        991
    x[14]     c2        749
    x[14]     OBJ       -372
    x[15]     c1        971
    x[15]     c2        310
    x[15]     OBJ       -12
    x[16]     c1        83
    x[16]     c2        630
    x[16]     OBJ       -855
    x[17]     c1        141
    x[17]     c2        276
    x[17]     OBJ       -290
    x[18]     c1        250
    x[18]     c2        240
    x[18]     OBJ       -608
    x[19]     c1        166
    x[19]     c2        796
    x[19]     OBJ       -621
    x[20]     c1        618
    x[20]     c2        746
    x[20]     OBJ       -665
    x[21]     c1        711
    x[21]     c2        611
    x[21]     OBJ       -675
    x[22]     c1        158
    x[22]     c2        295
    x[22]     OBJ       -120
    x[23]     c1        960
    x[23]     c2        979
    x[23]     OBJ       -495
    x[24]     c1        751
    x[24]     c2        163
    x[24]     OBJ       -53
    x[25]     c1        973
    x[25]     c2        141
    x[25]     OBJ       -288
    x[26]     c1        162
    x[26]     c2        848
    x[26]     OBJ       -381
    x[27]     c1        768
    x[27]     c2        234
    x[27]     OBJ       -208
    x[28]     c1        576
    x[28]     c2        242
    x[28]     OBJ       -196
    x[29]     c1        953
    x[29]     c2        169
    x[29]     OBJ       -609
    x[30]     c1        728
    x[30]     c2        876
    x[30]     OBJ       -596
    x[31]     c1        858
    x[31]     c2        888
    x[31]     OBJ       -861
    x[32]     c1        539
    x[32]     c2        441
    x[32]     OBJ       -730
    x[33]     c1        646
    x[33]     c2        408
    x[33]     OBJ       -825
    x[34]     c1        845
    x[34]     c2        696
    x[34]     OBJ       -786
    x[35]     c1        505
    x[35]     c2        389
    x[35]     OBJ       -943
RHS
    rhs       c1        10469
    rhs       c2        8518
RANGES
BOUNDS
 BV bounds    x[1]
 BV bounds    x[2]
 BV bounds    x[3]
 BV bounds    x[4]
 BV bounds    x[5]
 BV bounds    x[6]
 BV bounds    x[7]
 BV bounds    x[8]
 BV bounds    x[9]
 BV bounds    x[10]
 BV bounds    x[11]
 BV bounds    x[12]
 BV bounds    x[13]
 BV bounds    x[14]
 BV bounds    x[15]
 BV bounds    x[16]
 BV bounds    x[17]
 BV bounds    x[18]
 BV bounds    x[19]
 BV bounds    x[20]
 BV bounds    x[21]
 BV bounds    x[22]
 BV bounds    x[23]
 BV bounds    x[24]
 BV bounds    x[25]
 BV bounds    x[26]
 BV bounds    x[27]
 BV bounds    x[28]
 BV bounds    x[29]
 BV bounds    x[30]
 BV bounds    x[31]
 BV bounds    x[32]
 BV bounds    x[33]
 BV bounds    x[34]
 BV bounds    x[35]
ENDATA
